TYPE : Vertex Cover
DIMENSION: 20
EDGE_DATA_SECTION:
0 2
0 4
0 8
0 12
0 13
0 15
0 19
1 5
1 6
1 7
1 8
2 5
2 6
2 7
3 15
3 16
4 15
4 16
5 14
6 9
7 10
7 17
7 19
8 13
8 15
8 18
9 11
9 19
10 11
10 13
10 14
10 16
12 15
12 18
13 17
13 19
15 16
15 17
-1
VERTEX_DEGREE:
7.0 4.0 4.0 2.0 3.0 3.0 3.0 5.0 5.0 3.0 5.0 2.0 3.0 5.0 2.0 7.0 4.0 3.0 2.0 4.0
VERTEX_COVER:
0 1 2 5 7 9 10 13 15 16 18
EOF
